\ This file was automatically generated by Zimpl
\ var w1 >= 0;
\ var w2 >= 0;
\ var w3 >= 0;
\ maximize Z :      5*w1 + 50*w2 + 10*w3;
\ subto c1:      10*w1 + 10*w2 + 10*w3 <= 50;
\ subto c2:     1*w1 + 10*w2 + 11*w3 <= 100;
\ subto c3:     9*w1 + 10*w2 + 11*w3 <= 51;
\Problem name: .\pd.zpl
Maximize
 Z:  +5 w1 +50 w2 +10 w3
Subject to
 c1_1:
  +10 w3 +10 w2 +10 w1 <= 50
 c2_1:
  +11 w3 +10 w2 + w1 <= 100
 c3_1:
  +11 w3 +10 w2 +9 w1 <= 51
Bounds
 0 <= w1 <= +inf
 0 <= w2 <= +inf
 0 <= w3 <= +inf
End
